100 320
40 130
70 55
215 310
295 105
65 260
100 65
225 80
265 65
205 110
160 15
180 55
130 160
85 190
215 160
35 220
200 35
290 175
250 225
30 35
140 190
155 220
315 315
40 285
120 135
290 30
320 45
85 55
150 20
125 140
290 40
125 15
180 305
245 180
200 310
150 315
130 115
115 10
255 15
295 165
240 185
225 50
100 170
160 165
95 255
285 215
205 295
45 70
140 305
125 190
40 245
310 155
140 260
240 250
70 75
275 315
250 230
140 315
35 205
210 60
85 210
190 5
320 250
285 5
270 270
110 200
190 235
155 290
285 200
70 15
45 70
130 95
275 150
15 220
190 295
20 110
310 20
185 225
40 230
130 320
300 220
45 25
140 100
35 25
95 25
135 120
20 170
180 55
5 285
75 265
195 90
110 165
120 305
105 145
260 95
80 135
5 90
50 45
130 125
210 280
190 315
